c
p cnf 22 60
-15 12 0
-4 -15 0
10 -22 0
17 11 0
19 16 0
14 -8 0
14 6 0
-9 19 0
16 -1 0
-7 21 0
3 15 0
-20 -17 0
-13 7 0
-1 -18 0
11 21 0
-14 -22 0
19 -18 0
-18 -4 0
18 13 0
-13 18 0
20 5 0
-4 -1 0
6 2 0
-15 4 0
6 10 0
-8 1 0
-21 -19 0
-17 -13 0
-16 17 0
-16 8 0
-16 -22 0
4 -9 0
1 11 0
9 -3 0
-19 10 0
15 6 0
8 1 0
-1 -20 0
-14 -2 0
18 -7 0
-20 -15 0
-21 -4 0
19 -14 0
-13 6 0
11 13 0
2 -5 0
6 17 0
8 -16 0
-16 -21 0
8 -1 0
12 17 0
-13 -3 0
-14 13 0
7 13 0
17 6 0
15 10 0
-11 -17 0
9 5 0
6 -12 0
22 8 0
